Version identifier: 22.1.1.0 | 2022-11-28 | 9160aff4d
CPXPARAM_ClockType                               1
CPXPARAM_Read_DataCheck                          1
CPXPARAM_Threads                                 1
CPXPARAM_Simplex_Tolerances_Optimality           1.0000000000000001e-09
CPXPARAM_TimeLimit                               7200
CPXPARAM_MIP_Tolerances_AbsMIPGap                0
CPXPARAM_MIP_Tolerances_MIPGap                   0
CPXPARAM_MIP_Tolerances_Integrality              0
Tried aggregator 6 times.
MIQP Presolve eliminated 15486 rows and 2093 columns.
MIQP Presolve modified 2585 coefficients.
Aggregator did 2986 substitutions.
Reduced MIQP has 250219 rows, 75821 columns, and 762648 nonzeros.
Reduced MIQP has 68031 binaries, 7790 generals, 0 SOSs, and 0 indicators.
Reduced MIQP objective Q matrix has 7790 nonzeros.
Presolve time = 2.76 sec. (1435.88 ticks)
Probing fixed 328 vars, tightened 334 bounds.
Probing time = 6.23 sec. (1310.43 ticks)
Tried aggregator 4 times.
MIQP Presolve eliminated 8462 rows and 3052 columns.
MIQP Presolve modified 199 coefficients.
Aggregator did 290 substitutions.
Reduced MIQP has 241467 rows, 72479 columns, and 739515 nonzeros.
Reduced MIQP has 64737 binaries, 7742 generals, 0 SOSs, and 0 indicators.
Reduced MIQP objective Q matrix has 7742 nonzeros.
Presolve time = 4.91 sec. (2330.77 ticks)
Classifier predicts products in MIQP should be linearized.
Probing time = 0.10 sec. (20.70 ticks)
Clique table members: 311203.
MIP emphasis: balance optimality and feasibility.
MIP search method: dynamic search.
Parallel mode: none, using 1 thread.
Root relaxation solution time = 3825.65 sec. (2123225.15 ticks)

        Nodes                                         Cuts/
   Node  Left     Objective  IInf  Best Integer    Best Bound    ItCnt     Gap

      0     0    47831.9372 41546                  47831.9372   410865         
      0     0    47831.9372 41546               Cliques: 9981   432542         

Clique cuts applied:  12843
Zero-half cuts applied:  322

Root node processing (before b&c):
  Real time             = 7200.53 sec. (3406143.70 ticks)
Sequential b&c:
  Real time             =    0.00 sec. (0.00 ticks)
                          ------------
Total (root+branch&cut) = 7200.53 sec. (3406143.70 ticks)
Solution is infeasible.

---------------------
@@@ MIP_time_limit_infeasible
Traceback (most recent call last):
  File "/scratch/scherif/DiverseSAT-journal_sup/DiverseSAT_Supplementary_Experiments/experiment-1/cplex/jobs/../solvers/CPLEX-QP-SE.py", line 118, in <module>
    print(f">>> Benchmark {os.path.basename(cnf_file)} k {k} OPT {int(prob.solution.get_objective_value())}"
  File "/users/scherif/.local/lib/python3.9/site-packages/cplex/_internal/_subinterfaces.py", line 7211, in get_objective_value
    return CPX_PROC.getobjval(self._env._e, self._cplex._lp)
  File "/users/scherif/.local/lib/python3.9/site-packages/cplex/_internal/_procedural.py", line 2055, in getobjval
    check_status(env, status)
  File "/users/scherif/.local/lib/python3.9/site-packages/cplex/_internal/_procedural.py", line 249, in __call__
    raise CplexSolverError(error_string, env, status)
cplex.exceptions.errors.CplexSolverError: CPLEX Error  1217: No solution exists.
